20
1 0 17
2 0 12
2 1 11
3 0 21
3 1 36
3 2 24
4 0 29
4 1 7
4 2 39
4 3 14
5 0 30
5 1 18
5 2 10
5 3 4
5 4 20
6 0 2
6 1 38
6 2 2
6 3 12
6 4 16
6 5 6
7 0 37
7 1 24
7 2 28
7 3 11
7 4 14
7 5 39
7 6 5
8 0 20
8 1 22
8 2 8
8 3 22
8 4 10
8 5 29
8 6 28
8 7 35
9 0 4
9 1 33
9 2 30
9 3 12
9 4 12
9 5 22
9 6 31
9 7 3
9 8 14
10 0 29
10 1 13
10 2 39
10 3 1
10 4 8
10 5 10
10 6 16
10 7 22
10 8 12
10 9 39
11 0 14
11 1 13
11 2 10
11 3 4
11 4 21
11 5 5
11 6 39
11 7 36
11 8 32
11 9 27
11 10 21
12 0 3
12 1 14
12 2 36
12 3 31
12 4 39
12 5 21
12 6 23
12 7 10
12 8 14
12 9 1
12 10 2
12 11 5
13 0 39
13 1 38
13 2 4
13 3 37
13 4 3
13 5 6
13 6 7
13 7 17
13 8 3
13 9 21
13 10 26
13 11 20
13 12 16
14 0 6
14 1 2
14 2 13
14 3 5
14 4 37
14 5 31
14 6 2
14 7 27
14 8 25
14 9 16
14 10 27
14 11 8
14 12 22
14 13 8
15 0 36
15 1 39
15 2 26
15 3 24
15 4 9
15 5 39
15 6 8
15 7 38
15 8 14
15 9 31
15 10 25
15 11 6
15 12 1
15 13 7
15 14 15
16 0 29
16 1 21
16 2 5
16 3 22
16 4 5
16 5 18
16 6 4
16 7 26
16 8 9
16 9 40
16 10 33
16 11 40
16 12 18
16 13 4
16 14 5
16 15 20
17 0 34
17 1 30
17 2 5
17 3 29
17 4 10
17 5 9
17 6 7
17 7 19
17 8 13
17 9 26
17 10 15
17 11 26
17 12 32
17 13 38
17 14 13
17 15 25
17 16 26
18 0 6
18 1 18
18 2 28
18 3 28
18 4 9
18 5 13
18 6 12
18 7 4
18 8 34
18 9 29
18 10 38
18 11 24
18 12 20
18 13 6
18 14 13
18 15 15
18 16 4
18 17 6
19 0 25
19 1 7
19 2 37
19 3 28
19 4 17
19 5 35
19 6 17
19 7 32
19 8 17
19 9 25
19 10 20
19 11 14
19 12 1
19 13 9
19 14 2
19 15 15
19 16 23
19 17 21
19 18 33
